(declare-const a Real)
(declare-const b Real)
(declare-const c Real)
(assert (= (* a b c) 1))
(assert (> a 0))
(assert (> b 0))
(assert (> c 0))
(assert (not (<= (+ (* -28832512 (pow b 4)) (* -22246144 (pow a 4)) (* 34686 (pow (+ (* 2 a) (* 2 b)) 4)) (* -84934656 (pow a (/ 4 3)) (pow b (/ 8 3))) (* 28668928 b (pow a 3)) (* 98464768 a (pow b 3))) 0)))
(check-sat)
(get-model)
(exit)